15 3 
5437	5437	5437	
352	619	710	
478	621	844	
761	392	766	
24	310	327	
229	956	1064	
354	836	1483	
192	782	1553	
25	249	473	
271	353	451	
15	213	341	
558	719	1394	
725	270	484	
533	66	117	
199	237	393	
292	627	789	
